NAME : A-n63-k9.941528.tour
COMMENT : Length = 941528
COMMENT : Found by LKH [Keld Helsgaun] Sun Dec 17 18:44:21 2017
TYPE : TOUR
DIMENSION : 71
TOUR_SECTION
1
12
34
45
16
57
70
13
7
38
53
63
48
5
19
47
2
64
14
35
3
31
6
46
28
60
68
27
20
26
21
55
30
71
17
62
4
42
43
10
69
29
23
18
36
52
58
65
54
22
56
33
59
41
15
51
66
61
49
37
50
9
25
67
8
11
40
24
44
32
39
-1
EOF
